p cnf 81 1140
1 2 3 4 5 6 0
-1 2 3 4 5 6 0
1 -2 -3 4 5 6 0
1 2 -3 4 5 6 0
-1 -2 3 4 5 6 0
-1 -2 -3 4 5 6 0
-1 2 3 -4 -5 -6 0
-1 2 3 -4 5 -6 0
1 2 3 4 -5 -6 0
1 2 3 -4 -5 -6 0
-1 2 3 4 5 -6 0
1 2 3 4 5 -6 0
1 2 -3 4 -5 6 0
1 -2 -3 4 -5 6 0
1 2 -3 -4 -5 -6 0
1 2 -3 4 -5 -6 0
1 -2 -3 -4 -5 6 0
1 -2 -3 -4 -5 -6 0
-1 -2 -3 -4 -5 -6 0
-1 -2 -3 -4 -5 6 0
-1 -2 3 -4 5 -6 0
-1 -2 3 -4 -5 -6 0
-1 -2 -3 -4 5 6 0
-1 -2 3 -4 5 6 0
1 2 3 7 8 9 0
-1 2 3 7 8 9 0
1 -2 -3 7 8 9 0
1 2 -3 7 8 9 0
-1 -2 3 7 8 9 0
-1 -2 -3 7 8 9 0
-1 2 3 -7 -8 -9 0
-1 2 3 -7 8 -9 0
1 2 3 7 -8 -9 0
1 2 3 -7 -8 -9 0
-1 2 3 7 8 -9 0
1 2 3 7 8 -9 0
1 2 -3 7 -8 9 0
1 -2 -3 7 -8 9 0
1 2 -3 -7 -8 -9 0
1 2 -3 7 -8 -9 0
1 -2 -3 -7 -8 9 0
1 -2 -3 -7 -8 -9 0
-1 -2 -3 -7 -8 -9 0
-1 -2 -3 -7 -8 9 0
-1 -2 3 -7 8 -9 0
-1 -2 3 -7 -8 -9 0
-1 -2 -3 -7 8 9 0
-1 -2 3 -7 8 9 0
1 2 3 11 12 13 0
-1 2 3 11 12 13 0
1 -2 -3 11 12 13 0
1 2 -3 11 12 13 0
-1 -2 3 11 12 13 0
-1 -2 -3 11 12 13 0
-1 2 3 -11 -12 -13 0
-1 2 3 -11 12 -13 0
1 2 3 11 -12 -13 0
1 2 3 -11 -12 -13 0
-1 2 3 11 12 -13 0
1 2 3 11 12 -13 0
1 2 -3 11 -12 13 0
1 -2 -3 11 -12 13 0
1 2 -3 -11 -12 -13 0
1 2 -3 11 -12 -13 0
1 -2 -3 -11 -12 13 0
1 -2 -3 -11 -12 -13 0
-1 -2 -3 -11 -12 -13 0
-1 -2 -3 -11 -12 13 0
-1 -2 3 -11 12 -13 0
-1 -2 3 -11 -12 -13 0
-1 -2 -3 -11 12 13 0
-1 -2 3 -11 12 13 0
1 2 3 16 17 18 0
-1 2 3 16 17 18 0
1 -2 -3 16 17 18 0
1 2 -3 16 17 18 0
-1 -2 3 16 17 18 0
-1 -2 -3 16 17 18 0
-1 2 3 -16 -17 -18 0
-1 2 3 -16 17 -18 0
1 2 3 16 -17 -18 0
1 2 3 -16 -17 -18 0
-1 2 3 16 17 -18 0
1 2 3 16 17 -18 0
1 2 -3 16 -17 18 0
1 -2 -3 16 -17 18 0
1 2 -3 -16 -17 -18 0
1 2 -3 16 -17 -18 0
1 -2 -3 -16 -17 18 0
1 -2 -3 -16 -17 -18 0
-1 -2 -3 -16 -17 -18 0
-1 -2 -3 -16 -17 18 0
-1 -2 3 -16 17 -18 0
-1 -2 3 -16 -17 -18 0
-1 -2 -3 -16 17 18 0
-1 -2 3 -16 17 18 0
1 4 5 7 8 10 0
-1 4 5 7 8 10 0
1 -4 -5 7 8 10 0
1 4 -5 7 8 10 0
-1 -4 5 7 8 10 0
-1 -4 -5 7 8 10 0
-1 4 5 -7 -8 -10 0
-1 4 5 -7 8 -10 0
1 4 5 7 -8 -10 0
1 4 5 -7 -8 -10 0
-1 4 5 7 8 -10 0
1 4 5 7 8 -10 0
1 4 -5 7 -8 10 0
1 -4 -5 7 -8 10 0
1 4 -5 -7 -8 -10 0
1 4 -5 7 -8 -10 0
1 -4 -5 -7 -8 10 0
1 -4 -5 -7 -8 -10 0
-1 -4 -5 -7 -8 -10 0
-1 -4 -5 -7 -8 10 0
-1 -4 5 -7 8 -10 0
-1 -4 5 -7 -8 -10 0
-1 -4 -5 -7 8 10 0
-1 -4 5 -7 8 10 0
1 4 5 11 12 14 0
-1 4 5 11 12 14 0
1 -4 -5 11 12 14 0
1 4 -5 11 12 14 0
-1 -4 5 11 12 14 0
-1 -4 -5 11 12 14 0
-1 4 5 -11 -12 -14 0
-1 4 5 -11 12 -14 0
1 4 5 11 -12 -14 0
1 4 5 -11 -12 -14 0
-1 4 5 11 12 -14 0
1 4 5 11 12 -14 0
1 4 -5 11 -12 14 0
1 -4 -5 11 -12 14 0
1 4 -5 -11 -12 -14 0
1 4 -5 11 -12 -14 0
1 -4 -5 -11 -12 14 0
1 -4 -5 -11 -12 -14 0
-1 -4 -5 -11 -12 -14 0
-1 -4 -5 -11 -12 14 0
-1 -4 5 -11 12 -14 0
-1 -4 5 -11 -12 -14 0
-1 -4 -5 -11 12 14 0
-1 -4 5 -11 12 14 0
1 4 5 16 17 19 0
-1 4 5 16 17 19 0
1 -4 -5 16 17 19 0
1 4 -5 16 17 19 0
-1 -4 5 16 17 19 0
-1 -4 -5 16 17 19 0
-1 4 5 -16 -17 -19 0
-1 4 5 -16 17 -19 0
1 4 5 16 -17 -19 0
1 4 5 -16 -17 -19 0
-1 4 5 16 17 -19 0
1 4 5 16 17 -19 0
1 4 -5 16 -17 19 0
1 -4 -5 16 -17 19 0
1 4 -5 -16 -17 -19 0
1 4 -5 16 -17 -19 0
1 -4 -5 -16 -17 19 0
1 -4 -5 -16 -17 -19 0
-1 -4 -5 -16 -17 -19 0
-1 -4 -5 -16 -17 19 0
-1 -4 5 -16 17 -19 0
-1 -4 5 -16 -17 -19 0
-1 -4 -5 -16 17 19 0
-1 -4 5 -16 17 19 0
1 7 8 11 12 15 0
-1 7 8 11 12 15 0
1 -7 -8 11 12 15 0
1 7 -8 11 12 15 0
-1 -7 8 11 12 15 0
-1 -7 -8 11 12 15 0
-1 7 8 -11 -12 -15 0
-1 7 8 -11 12 -15 0
1 7 8 11 -12 -15 0
1 7 8 -11 -12 -15 0
-1 7 8 11 12 -15 0
1 7 8 11 12 -15 0
1 7 -8 11 -12 15 0
1 -7 -8 11 -12 15 0
1 7 -8 -11 -12 -15 0
1 7 -8 11 -12 -15 0
1 -7 -8 -11 -12 15 0
1 -7 -8 -11 -12 -15 0
-1 -7 -8 -11 -12 -15 0
-1 -7 -8 -11 -12 15 0
-1 -7 8 -11 12 -15 0
-1 -7 8 -11 -12 -15 0
-1 -7 -8 -11 12 15 0
-1 -7 8 -11 12 15 0
1 7 8 16 17 20 0
-1 7 8 16 17 20 0
1 -7 -8 16 17 20 0
1 7 -8 16 17 20 0
-1 -7 8 16 17 20 0
-1 -7 -8 16 17 20 0
-1 7 8 -16 -17 -20 0
-1 7 8 -16 17 -20 0
1 7 8 16 -17 -20 0
1 7 8 -16 -17 -20 0
-1 7 8 16 17 -20 0
1 7 8 16 17 -20 0
1 7 -8 16 -17 20 0
1 -7 -8 16 -17 20 0
1 7 -8 -16 -17 -20 0
1 7 -8 16 -17 -20 0
1 -7 -8 -16 -17 20 0
1 -7 -8 -16 -17 -20 0
-1 -7 -8 -16 -17 -20 0
-1 -7 -8 -16 -17 20 0
-1 -7 8 -16 17 -20 0
-1 -7 8 -16 -17 -20 0
-1 -7 -8 -16 17 20 0
-1 -7 8 -16 17 20 0
1 11 12 16 17 21 0
-1 11 12 16 17 21 0
1 -11 -12 16 17 21 0
1 11 -12 16 17 21 0
-1 -11 12 16 17 21 0
-1 -11 -12 16 17 21 0
-1 11 12 -16 -17 -21 0
-1 11 12 -16 17 -21 0
1 11 12 16 -17 -21 0
1 11 12 -16 -17 -21 0
-1 11 12 16 17 -21 0
1 11 12 16 17 -21 0
1 11 -12 16 -17 21 0
1 -11 -12 16 -17 21 0
1 11 -12 -16 -17 -21 0
1 11 -12 16 -17 -21 0
1 -11 -12 -16 -17 21 0
1 -11 -12 -16 -17 -21 0
-1 -11 -12 -16 -17 -21 0
-1 -11 -12 -16 -17 21 0
-1 -11 12 -16 17 -21 0
-1 -11 12 -16 -17 -21 0
-1 -11 -12 -16 17 21 0
-1 -11 12 -16 17 21 0
2 4 6 7 9 10 0
-2 4 6 7 9 10 0
2 -4 -6 7 9 10 0
2 4 -6 7 9 10 0
-2 -4 6 7 9 10 0
-2 -4 -6 7 9 10 0
-2 4 6 -7 -9 -10 0
-2 4 6 -7 9 -10 0
2 4 6 7 -9 -10 0
2 4 6 -7 -9 -10 0
-2 4 6 7 9 -10 0
2 4 6 7 9 -10 0
2 4 -6 7 -9 10 0
2 -4 -6 7 -9 10 0
2 4 -6 -7 -9 -10 0
2 4 -6 7 -9 -10 0
2 -4 -6 -7 -9 10 0
2 -4 -6 -7 -9 -10 0
-2 -4 -6 -7 -9 -10 0
-2 -4 -6 -7 -9 10 0
-2 -4 6 -7 9 -10 0
-2 -4 6 -7 -9 -10 0
-2 -4 -6 -7 9 10 0
-2 -4 6 -7 9 10 0
2 4 6 11 13 14 0
-2 4 6 11 13 14 0
2 -4 -6 11 13 14 0
2 4 -6 11 13 14 0
-2 -4 6 11 13 14 0
-2 -4 -6 11 13 14 0
-2 4 6 -11 -13 -14 0
-2 4 6 -11 13 -14 0
2 4 6 11 -13 -14 0
2 4 6 -11 -13 -14 0
-2 4 6 11 13 -14 0
2 4 6 11 13 -14 0
2 4 -6 11 -13 14 0
2 -4 -6 11 -13 14 0
2 4 -6 -11 -13 -14 0
2 4 -6 11 -13 -14 0
2 -4 -6 -11 -13 14 0
2 -4 -6 -11 -13 -14 0
-2 -4 -6 -11 -13 -14 0
-2 -4 -6 -11 -13 14 0
-2 -4 6 -11 13 -14 0
-2 -4 6 -11 -13 -14 0
-2 -4 -6 -11 13 14 0
-2 -4 6 -11 13 14 0
2 4 6 16 18 19 0
-2 4 6 16 18 19 0
2 -4 -6 16 18 19 0
2 4 -6 16 18 19 0
-2 -4 6 16 18 19 0
-2 -4 -6 16 18 19 0
-2 4 6 -16 -18 -19 0
-2 4 6 -16 18 -19 0
2 4 6 16 -18 -19 0
2 4 6 -16 -18 -19 0
-2 4 6 16 18 -19 0
2 4 6 16 18 -19 0
2 4 -6 16 -18 19 0
2 -4 -6 16 -18 19 0
2 4 -6 -16 -18 -19 0
2 4 -6 16 -18 -19 0
2 -4 -6 -16 -18 19 0
2 -4 -6 -16 -18 -19 0
-2 -4 -6 -16 -18 -19 0
-2 -4 -6 -16 -18 19 0
-2 -4 6 -16 18 -19 0
-2 -4 6 -16 -18 -19 0
-2 -4 -6 -16 18 19 0
-2 -4 6 -16 18 19 0
2 7 9 11 13 15 0
-2 7 9 11 13 15 0
2 -7 -9 11 13 15 0
2 7 -9 11 13 15 0
-2 -7 9 11 13 15 0
-2 -7 -9 11 13 15 0
-2 7 9 -11 -13 -15 0
-2 7 9 -11 13 -15 0
2 7 9 11 -13 -15 0
2 7 9 -11 -13 -15 0
-2 7 9 11 13 -15 0
2 7 9 11 13 -15 0
2 7 -9 11 -13 15 0
2 -7 -9 11 -13 15 0
2 7 -9 -11 -13 -15 0
2 7 -9 11 -13 -15 0
2 -7 -9 -11 -13 15 0
2 -7 -9 -11 -13 -15 0
-2 -7 -9 -11 -13 -15 0
-2 -7 -9 -11 -13 15 0
-2 -7 9 -11 13 -15 0
-2 -7 9 -11 -13 -15 0
-2 -7 -9 -11 13 15 0
-2 -7 9 -11 13 15 0
2 7 9 16 18 20 0
-2 7 9 16 18 20 0
2 -7 -9 16 18 20 0
2 7 -9 16 18 20 0
-2 -7 9 16 18 20 0
-2 -7 -9 16 18 20 0
-2 7 9 -16 -18 -20 0
-2 7 9 -16 18 -20 0
2 7 9 16 -18 -20 0
2 7 9 -16 -18 -20 0
-2 7 9 16 18 -20 0
2 7 9 16 18 -20 0
2 7 -9 16 -18 20 0
2 -7 -9 16 -18 20 0
2 7 -9 -16 -18 -20 0
2 7 -9 16 -18 -20 0
2 -7 -9 -16 -18 20 0
2 -7 -9 -16 -18 -20 0
-2 -7 -9 -16 -18 -20 0
-2 -7 -9 -16 -18 20 0
-2 -7 9 -16 18 -20 0
-2 -7 9 -16 -18 -20 0
-2 -7 -9 -16 18 20 0
-2 -7 9 -16 18 20 0
2 11 13 16 18 21 0
-2 11 13 16 18 21 0
2 -11 -13 16 18 21 0
2 11 -13 16 18 21 0
-2 -11 13 16 18 21 0
-2 -11 -13 16 18 21 0
-2 11 13 -16 -18 -21 0
-2 11 13 -16 18 -21 0
2 11 13 16 -18 -21 0
2 11 13 -16 -18 -21 0
-2 11 13 16 18 -21 0
2 11 13 16 18 -21 0
2 11 -13 16 -18 21 0
2 -11 -13 16 -18 21 0
2 11 -13 -16 -18 -21 0
2 11 -13 16 -18 -21 0
2 -11 -13 -16 -18 21 0
2 -11 -13 -16 -18 -21 0
-2 -11 -13 -16 -18 -21 0
-2 -11 -13 -16 -18 21 0
-2 -11 13 -16 18 -21 0
-2 -11 13 -16 -18 -21 0
-2 -11 -13 -16 18 21 0
-2 -11 13 -16 18 21 0
4 7 10 11 14 15 0
-4 7 10 11 14 15 0
4 -7 -10 11 14 15 0
4 7 -10 11 14 15 0
-4 -7 10 11 14 15 0
-4 -7 -10 11 14 15 0
-4 7 10 -11 -14 -15 0
-4 7 10 -11 14 -15 0
4 7 10 11 -14 -15 0
4 7 10 -11 -14 -15 0
-4 7 10 11 14 -15 0
4 7 10 11 14 -15 0
4 7 -10 11 -14 15 0
4 -7 -10 11 -14 15 0
4 7 -10 -11 -14 -15 0
4 7 -10 11 -14 -15 0
4 -7 -10 -11 -14 15 0
4 -7 -10 -11 -14 -15 0
-4 -7 -10 -11 -14 -15 0
-4 -7 -10 -11 -14 15 0
-4 -7 10 -11 14 -15 0
-4 -7 10 -11 -14 -15 0
-4 -7 -10 -11 14 15 0
-4 -7 10 -11 14 15 0
4 7 10 16 19 20 0
-4 7 10 16 19 20 0
4 -7 -10 16 19 20 0
4 7 -10 16 19 20 0
-4 -7 10 16 19 20 0
-4 -7 -10 16 19 20 0
-4 7 10 -16 -19 -20 0
-4 7 10 -16 19 -20 0
4 7 10 16 -19 -20 0
4 7 10 -16 -19 -20 0
-4 7 10 16 19 -20 0
4 7 10 16 19 -20 0
4 7 -10 16 -19 20 0
4 -7 -10 16 -19 20 0
4 7 -10 -16 -19 -20 0
4 7 -10 16 -19 -20 0
4 -7 -10 -16 -19 20 0
4 -7 -10 -16 -19 -20 0
-4 -7 -10 -16 -19 -20 0
-4 -7 -10 -16 -19 20 0
-4 -7 10 -16 19 -20 0
-4 -7 10 -16 -19 -20 0
-4 -7 -10 -16 19 20 0
-4 -7 10 -16 19 20 0
4 11 14 16 19 21 0
-4 11 14 16 19 21 0
4 -11 -14 16 19 21 0
4 11 -14 16 19 21 0
-4 -11 14 16 19 21 0
-4 -11 -14 16 19 21 0
-4 11 14 -16 -19 -21 0
-4 11 14 -16 19 -21 0
4 11 14 16 -19 -21 0
4 11 14 -16 -19 -21 0
-4 11 14 16 19 -21 0
4 11 14 16 19 -21 0
4 11 -14 16 -19 21 0
4 -11 -14 16 -19 21 0
4 11 -14 -16 -19 -21 0
4 11 -14 16 -19 -21 0
4 -11 -14 -16 -19 21 0
4 -11 -14 -16 -19 -21 0
-4 -11 -14 -16 -19 -21 0
-4 -11 -14 -16 -19 21 0
-4 -11 14 -16 19 -21 0
-4 -11 14 -16 -19 -21 0
-4 -11 -14 -16 19 21 0
-4 -11 14 -16 19 21 0
7 11 15 16 20 21 0
-7 11 15 16 20 21 0
7 -11 -15 16 20 21 0
7 11 -15 16 20 21 0
-7 -11 15 16 20 21 0
-7 -11 -15 16 20 21 0
-7 11 15 -16 -20 -21 0
-7 11 15 -16 20 -21 0
7 11 15 16 -20 -21 0
7 11 15 -16 -20 -21 0
-7 11 15 16 20 -21 0
7 11 15 16 20 -21 0
7 11 -15 16 -20 21 0
7 -11 -15 16 -20 21 0
7 11 -15 -16 -20 -21 0
7 11 -15 16 -20 -21 0
7 -11 -15 -16 -20 21 0
7 -11 -15 -16 -20 -21 0
-7 -11 -15 -16 -20 -21 0
-7 -11 -15 -16 -20 21 0
-7 -11 15 -16 20 -21 0
-7 -11 15 -16 -20 -21 0
-7 -11 -15 -16 20 21 0
-7 -11 15 -16 20 21 0
3 5 6 8 9 10 0
-3 5 6 8 9 10 0
3 -5 -6 8 9 10 0
3 5 -6 8 9 10 0
-3 -5 6 8 9 10 0
-3 -5 -6 8 9 10 0
-3 5 6 -8 -9 -10 0
-3 5 6 -8 9 -10 0
3 5 6 8 -9 -10 0
3 5 6 -8 -9 -10 0
-3 5 6 8 9 -10 0
3 5 6 8 9 -10 0
3 5 -6 8 -9 10 0
3 -5 -6 8 -9 10 0
3 5 -6 -8 -9 -10 0
3 5 -6 8 -9 -10 0
3 -5 -6 -8 -9 10 0
3 -5 -6 -8 -9 -10 0
-3 -5 -6 -8 -9 -10 0
-3 -5 -6 -8 -9 10 0
-3 -5 6 -8 9 -10 0
-3 -5 6 -8 -9 -10 0
-3 -5 -6 -8 9 10 0
-3 -5 6 -8 9 10 0
3 5 6 12 13 14 0
-3 5 6 12 13 14 0
3 -5 -6 12 13 14 0
3 5 -6 12 13 14 0
-3 -5 6 12 13 14 0
-3 -5 -6 12 13 14 0
-3 5 6 -12 -13 -14 0
-3 5 6 -12 13 -14 0
3 5 6 12 -13 -14 0
3 5 6 -12 -13 -14 0
-3 5 6 12 13 -14 0
3 5 6 12 13 -14 0
3 5 -6 12 -13 14 0
3 -5 -6 12 -13 14 0
3 5 -6 -12 -13 -14 0
3 5 -6 12 -13 -14 0
3 -5 -6 -12 -13 14 0
3 -5 -6 -12 -13 -14 0
-3 -5 -6 -12 -13 -14 0
-3 -5 -6 -12 -13 14 0
-3 -5 6 -12 13 -14 0
-3 -5 6 -12 -13 -14 0
-3 -5 -6 -12 13 14 0
-3 -5 6 -12 13 14 0
3 5 6 17 18 19 0
-3 5 6 17 18 19 0
3 -5 -6 17 18 19 0
3 5 -6 17 18 19 0
-3 -5 6 17 18 19 0
-3 -5 -6 17 18 19 0
-3 5 6 -17 -18 -19 0
-3 5 6 -17 18 -19 0
3 5 6 17 -18 -19 0
3 5 6 -17 -18 -19 0
-3 5 6 17 18 -19 0
3 5 6 17 18 -19 0
3 5 -6 17 -18 19 0
3 -5 -6 17 -18 19 0
3 5 -6 -17 -18 -19 0
3 5 -6 17 -18 -19 0
3 -5 -6 -17 -18 19 0
3 -5 -6 -17 -18 -19 0
-3 -5 -6 -17 -18 -19 0
-3 -5 -6 -17 -18 19 0
-3 -5 6 -17 18 -19 0
-3 -5 6 -17 -18 -19 0
-3 -5 -6 -17 18 19 0
-3 -5 6 -17 18 19 0
3 8 9 12 13 15 0
-3 8 9 12 13 15 0
3 -8 -9 12 13 15 0
3 8 -9 12 13 15 0
-3 -8 9 12 13 15 0
-3 -8 -9 12 13 15 0
-3 8 9 -12 -13 -15 0
-3 8 9 -12 13 -15 0
3 8 9 12 -13 -15 0
3 8 9 -12 -13 -15 0
-3 8 9 12 13 -15 0
3 8 9 12 13 -15 0
3 8 -9 12 -13 15 0
3 -8 -9 12 -13 15 0
3 8 -9 -12 -13 -15 0
3 8 -9 12 -13 -15 0
3 -8 -9 -12 -13 15 0
3 -8 -9 -12 -13 -15 0
-3 -8 -9 -12 -13 -15 0
-3 -8 -9 -12 -13 15 0
-3 -8 9 -12 13 -15 0
-3 -8 9 -12 -13 -15 0
-3 -8 -9 -12 13 15 0
-3 -8 9 -12 13 15 0
3 8 9 17 18 20 0
-3 8 9 17 18 20 0
3 -8 -9 17 18 20 0
3 8 -9 17 18 20 0
-3 -8 9 17 18 20 0
-3 -8 -9 17 18 20 0
-3 8 9 -17 -18 -20 0
-3 8 9 -17 18 -20 0
3 8 9 17 -18 -20 0
3 8 9 -17 -18 -20 0
-3 8 9 17 18 -20 0
3 8 9 17 18 -20 0
3 8 -9 17 -18 20 0
3 -8 -9 17 -18 20 0
3 8 -9 -17 -18 -20 0
3 8 -9 17 -18 -20 0
3 -8 -9 -17 -18 20 0
3 -8 -9 -17 -18 -20 0
-3 -8 -9 -17 -18 -20 0
-3 -8 -9 -17 -18 20 0
-3 -8 9 -17 18 -20 0
-3 -8 9 -17 -18 -20 0
-3 -8 -9 -17 18 20 0
-3 -8 9 -17 18 20 0
3 12 13 17 18 21 0
-3 12 13 17 18 21 0
3 -12 -13 17 18 21 0
3 12 -13 17 18 21 0
-3 -12 13 17 18 21 0
-3 -12 -13 17 18 21 0
-3 12 13 -17 -18 -21 0
-3 12 13 -17 18 -21 0
3 12 13 17 -18 -21 0
3 12 13 -17 -18 -21 0
-3 12 13 17 18 -21 0
3 12 13 17 18 -21 0
3 12 -13 17 -18 21 0
3 -12 -13 17 -18 21 0
3 12 -13 -17 -18 -21 0
3 12 -13 17 -18 -21 0
3 -12 -13 -17 -18 21 0
3 -12 -13 -17 -18 -21 0
-3 -12 -13 -17 -18 -21 0
-3 -12 -13 -17 -18 21 0
-3 -12 13 -17 18 -21 0
-3 -12 13 -17 -18 -21 0
-3 -12 -13 -17 18 21 0
-3 -12 13 -17 18 21 0
5 8 10 12 14 15 0
-5 8 10 12 14 15 0
5 -8 -10 12 14 15 0
5 8 -10 12 14 15 0
-5 -8 10 12 14 15 0
-5 -8 -10 12 14 15 0
-5 8 10 -12 -14 -15 0
-5 8 10 -12 14 -15 0
5 8 10 12 -14 -15 0
5 8 10 -12 -14 -15 0
-5 8 10 12 14 -15 0
5 8 10 12 14 -15 0
5 8 -10 12 -14 15 0
5 -8 -10 12 -14 15 0
5 8 -10 -12 -14 -15 0
5 8 -10 12 -14 -15 0
5 -8 -10 -12 -14 15 0
5 -8 -10 -12 -14 -15 0
-5 -8 -10 -12 -14 -15 0
-5 -8 -10 -12 -14 15 0
-5 -8 10 -12 14 -15 0
-5 -8 10 -12 -14 -15 0
-5 -8 -10 -12 14 15 0
-5 -8 10 -12 14 15 0
5 8 10 17 19 20 0
-5 8 10 17 19 20 0
5 -8 -10 17 19 20 0
5 8 -10 17 19 20 0
-5 -8 10 17 19 20 0
-5 -8 -10 17 19 20 0
-5 8 10 -17 -19 -20 0
-5 8 10 -17 19 -20 0
5 8 10 17 -19 -20 0
5 8 10 -17 -19 -20 0
-5 8 10 17 19 -20 0
5 8 10 17 19 -20 0
5 8 -10 17 -19 20 0
5 -8 -10 17 -19 20 0
5 8 -10 -17 -19 -20 0
5 8 -10 17 -19 -20 0
5 -8 -10 -17 -19 20 0
5 -8 -10 -17 -19 -20 0
-5 -8 -10 -17 -19 -20 0
-5 -8 -10 -17 -19 20 0
-5 -8 10 -17 19 -20 0
-5 -8 10 -17 -19 -20 0
-5 -8 -10 -17 19 20 0
-5 -8 10 -17 19 20 0
5 12 14 17 19 21 0
-5 12 14 17 19 21 0
5 -12 -14 17 19 21 0
5 12 -14 17 19 21 0
-5 -12 14 17 19 21 0
-5 -12 -14 17 19 21 0
-5 12 14 -17 -19 -21 0
-5 12 14 -17 19 -21 0
5 12 14 17 -19 -21 0
5 12 14 -17 -19 -21 0
-5 12 14 17 19 -21 0
5 12 14 17 19 -21 0
5 12 -14 17 -19 21 0
5 -12 -14 17 -19 21 0
5 12 -14 -17 -19 -21 0
5 12 -14 17 -19 -21 0
5 -12 -14 -17 -19 21 0
5 -12 -14 -17 -19 -21 0
-5 -12 -14 -17 -19 -21 0
-5 -12 -14 -17 -19 21 0
-5 -12 14 -17 19 -21 0
-5 -12 14 -17 -19 -21 0
-5 -12 -14 -17 19 21 0
-5 -12 14 -17 19 21 0
8 12 15 17 20 21 0
-8 12 15 17 20 21 0
8 -12 -15 17 20 21 0
8 12 -15 17 20 21 0
-8 -12 15 17 20 21 0
-8 -12 -15 17 20 21 0
-8 12 15 -17 -20 -21 0
-8 12 15 -17 20 -21 0
8 12 15 17 -20 -21 0
8 12 15 -17 -20 -21 0
-8 12 15 17 20 -21 0
8 12 15 17 20 -21 0
8 12 -15 17 -20 21 0
8 -12 -15 17 -20 21 0
8 12 -15 -17 -20 -21 0
8 12 -15 17 -20 -21 0
8 -12 -15 -17 -20 21 0
8 -12 -15 -17 -20 -21 0
-8 -12 -15 -17 -20 -21 0
-8 -12 -15 -17 -20 21 0
-8 -12 15 -17 20 -21 0
-8 -12 15 -17 -20 -21 0
-8 -12 -15 -17 20 21 0
-8 -12 15 -17 20 21 0
6 9 10 13 14 15 0
-6 9 10 13 14 15 0
6 -9 -10 13 14 15 0
6 9 -10 13 14 15 0
-6 -9 10 13 14 15 0
-6 -9 -10 13 14 15 0
-6 9 10 -13 -14 -15 0
-6 9 10 -13 14 -15 0
6 9 10 13 -14 -15 0
6 9 10 -13 -14 -15 0
-6 9 10 13 14 -15 0
6 9 10 13 14 -15 0
6 9 -10 13 -14 15 0
6 -9 -10 13 -14 15 0
6 9 -10 -13 -14 -15 0
6 9 -10 13 -14 -15 0
6 -9 -10 -13 -14 15 0
6 -9 -10 -13 -14 -15 0
-6 -9 -10 -13 -14 -15 0
-6 -9 -10 -13 -14 15 0
-6 -9 10 -13 14 -15 0
-6 -9 10 -13 -14 -15 0
-6 -9 -10 -13 14 15 0
-6 -9 10 -13 14 15 0
6 9 10 18 19 20 0
-6 9 10 18 19 20 0
6 -9 -10 18 19 20 0
6 9 -10 18 19 20 0
-6 -9 10 18 19 20 0
-6 -9 -10 18 19 20 0
-6 9 10 -18 -19 -20 0
-6 9 10 -18 19 -20 0
6 9 10 18 -19 -20 0
6 9 10 -18 -19 -20 0
-6 9 10 18 19 -20 0
6 9 10 18 19 -20 0
6 9 -10 18 -19 20 0
6 -9 -10 18 -19 20 0
6 9 -10 -18 -19 -20 0
6 9 -10 18 -19 -20 0
6 -9 -10 -18 -19 20 0
6 -9 -10 -18 -19 -20 0
-6 -9 -10 -18 -19 -20 0
-6 -9 -10 -18 -19 20 0
-6 -9 10 -18 19 -20 0
-6 -9 10 -18 -19 -20 0
-6 -9 -10 -18 19 20 0
-6 -9 10 -18 19 20 0
6 13 14 18 19 21 0
-6 13 14 18 19 21 0
6 -13 -14 18 19 21 0
6 13 -14 18 19 21 0
-6 -13 14 18 19 21 0
-6 -13 -14 18 19 21 0
-6 13 14 -18 -19 -21 0
-6 13 14 -18 19 -21 0
6 13 14 18 -19 -21 0
6 13 14 -18 -19 -21 0
-6 13 14 18 19 -21 0
6 13 14 18 19 -21 0
6 13 -14 18 -19 21 0
6 -13 -14 18 -19 21 0
6 13 -14 -18 -19 -21 0
6 13 -14 18 -19 -21 0
6 -13 -14 -18 -19 21 0
6 -13 -14 -18 -19 -21 0
-6 -13 -14 -18 -19 -21 0
-6 -13 -14 -18 -19 21 0
-6 -13 14 -18 19 -21 0
-6 -13 14 -18 -19 -21 0
-6 -13 -14 -18 19 21 0
-6 -13 14 -18 19 21 0
9 13 15 18 20 21 0
-9 13 15 18 20 21 0
9 -13 -15 18 20 21 0
9 13 -15 18 20 21 0
-9 -13 15 18 20 21 0
-9 -13 -15 18 20 21 0
-9 13 15 -18 -20 -21 0
-9 13 15 -18 20 -21 0
9 13 15 18 -20 -21 0
9 13 15 -18 -20 -21 0
-9 13 15 18 20 -21 0
9 13 15 18 20 -21 0
9 13 -15 18 -20 21 0
9 -13 -15 18 -20 21 0
9 13 -15 -18 -20 -21 0
9 13 -15 18 -20 -21 0
9 -13 -15 -18 -20 21 0
9 -13 -15 -18 -20 -21 0
-9 -13 -15 -18 -20 -21 0
-9 -13 -15 -18 -20 21 0
-9 -13 15 -18 20 -21 0
-9 -13 15 -18 -20 -21 0
-9 -13 -15 -18 20 21 0
-9 -13 15 -18 20 21 0
10 14 15 19 20 21 0
-10 14 15 19 20 21 0
10 -14 -15 19 20 21 0
10 14 -15 19 20 21 0
-10 -14 15 19 20 21 0
-10 -14 -15 19 20 21 0
-10 14 15 -19 -20 -21 0
-10 14 15 -19 20 -21 0
10 14 15 19 -20 -21 0
10 14 15 -19 -20 -21 0
-10 14 15 19 20 -21 0
10 14 15 19 20 -21 0
10 14 -15 19 -20 21 0
10 -14 -15 19 -20 21 0
10 14 -15 -19 -20 -21 0
10 14 -15 19 -20 -21 0
10 -14 -15 -19 -20 21 0
10 -14 -15 -19 -20 -21 0
-10 -14 -15 -19 -20 -21 0
-10 -14 -15 -19 -20 21 0
-10 -14 15 -19 20 -21 0
-10 -14 15 -19 -20 -21 0
-10 -14 -15 -19 20 21 0
-10 -14 15 -19 20 21 0
-11 16 0
22 -11 0
22 16 0
-22 11 -16 0
-22 -12 17 0
23 -22 -12 0
23 -22 17 0
-23 22 0
-23 12 -17 0
-23 -13 18 0
24 -23 -13 0
24 -23 18 0
-24 23 0
-24 13 -18 0
-24 -14 19 0
25 -24 -14 0
25 -24 19 0
-25 24 0
-25 14 -19 0
-25 -15 20 0
26 -25 -15 0
26 -25 20 0
-26 25 0
-26 15 -20 0
-26 -21 -21 0
-7 11 0
27 -7 0
27 11 0
-27 7 -11 0
-27 -8 12 0
28 -27 -8 0
28 -27 12 0
-28 27 0
-28 8 -12 0
-28 -9 13 0
29 -28 -9 0
29 -28 13 0
-29 28 0
-29 9 -13 0
-29 -10 14 0
30 -29 -10 0
30 -29 14 0
-30 29 0
-30 10 -14 0
-30 -15 -15 0
-4 7 0
31 -4 0
31 7 0
-31 4 -7 0
-31 -5 8 0
32 -31 -5 0
32 -31 8 0
-32 31 0
-32 5 -8 0
-32 -6 9 0
33 -32 -6 0
33 -32 9 0
-33 32 0
-33 6 -9 0
-33 -7 11 0
34 -33 -7 0
34 -33 11 0
-34 33 0
-34 7 -11 0
-34 -8 12 0
35 -34 -8 0
35 -34 12 0
-35 34 0
-35 8 -12 0
-35 -9 13 0
36 -35 -9 0
36 -35 13 0
-36 35 0
-36 9 -13 0
-36 -10 15 0
37 -36 -10 0
37 -36 15 0
-37 36 0
-37 10 -15 0
-37 -11 16 0
38 -37 -11 0
38 -37 16 0
-38 37 0
-38 11 -16 0
-38 -12 17 0
39 -38 -12 0
39 -38 17 0
-39 38 0
-39 12 -17 0
-39 -13 18 0
40 -39 -13 0
40 -39 18 0
-40 39 0
-40 13 -18 0
-40 -14 20 0
41 -40 -14 0
41 -40 20 0
-41 40 0
-41 14 -20 0
-41 -15 21 0
42 -41 -15 0
42 -41 21 0
-42 41 0
-42 15 -21 0
-42 -19 -10 0
43 -42 -19 0
43 -42 -10 0
-43 42 0
-43 19 10 0
-43 -21 -19 0
-2 4 0
44 -2 0
44 4 0
-44 2 -4 0
-44 -3 5 0
45 -44 -3 0
45 -44 5 0
-45 44 0
-45 3 -5 0
-45 -4 7 0
46 -45 -4 0
46 -45 7 0
-46 45 0
-46 4 -7 0
-46 -5 8 0
47 -46 -5 0
47 -46 8 0
-47 46 0
-47 5 -8 0
-47 -6 10 0
48 -47 -6 0
48 -47 10 0
-48 47 0
-48 6 -10 0
-48 -7 11 0
49 -48 -7 0
49 -48 11 0
-49 48 0
-49 7 -11 0
-49 -8 12 0
50 -49 -8 0
50 -49 12 0
-50 49 0
-50 8 -12 0
-50 -9 14 0
51 -50 -9 0
51 -50 14 0
-51 50 0
-51 9 -14 0
-51 -10 15 0
52 -51 -10 0
52 -51 15 0
-52 51 0
-52 10 -15 0
-52 -11 16 0
53 -52 -11 0
53 -52 16 0
-53 52 0
-53 11 -16 0
-53 -12 17 0
54 -53 -12 0
54 -53 17 0
-54 53 0
-54 12 -17 0
-54 -13 19 0
55 -54 -13 0
55 -54 19 0
-55 54 0
-55 13 -19 0
-55 -14 20 0
56 -55 -14 0
56 -55 20 0
-56 55 0
-56 14 -20 0
-56 -15 21 0
57 -56 -15 0
57 -56 21 0
-57 56 0
-57 15 -21 0
-57 -18 -6 0
58 -57 -18 0
58 -57 -6 0
-58 57 0
-58 18 6 0
-58 -19 -9 0
59 -58 -19 0
59 -58 -9 0
-59 58 0
-59 19 9 0
-59 -20 -13 0
60 -59 -20 0
60 -59 -13 0
-60 59 0
-60 20 13 0
-60 -21 -18 0
-2 -3 0
61 -2 0
61 -3 0
-61 2 3 0
-61 -4 -5 0
62 -61 -4 0
62 -61 -5 0
-62 61 0
-62 4 5 0
-62 -6 -6 0
-1 2 0
63 -1 0
63 2 0
-63 1 -2 0
-63 -2 4 0
64 -63 -2 0
64 -63 4 0
-64 63 0
-64 2 -4 0
-64 -3 6 0
65 -64 -3 0
65 -64 6 0
-65 64 0
-65 3 -6 0
-65 -4 7 0
66 -65 -4 0
66 -65 7 0
-66 65 0
-66 4 -7 0
-66 -5 9 0
67 -66 -5 0
67 -66 9 0
-67 66 0
-67 5 -9 0
-67 -6 10 0
68 -67 -6 0
68 -67 10 0
-68 67 0
-68 6 -10 0
-68 -7 11 0
69 -68 -7 0
69 -68 11 0
-69 68 0
-69 7 -11 0
-69 -8 13 0
70 -69 -8 0
70 -69 13 0
-70 69 0
-70 8 -13 0
-70 -9 14 0
71 -70 -9 0
71 -70 14 0
-71 70 0
-71 9 -14 0
-71 -10 15 0
72 -71 -10 0
72 -71 15 0
-72 71 0
-72 10 -15 0
-72 -11 16 0
73 -72 -11 0
73 -72 16 0
-73 72 0
-73 11 -16 0
-73 -12 18 0
74 -73 -12 0
74 -73 18 0
-74 73 0
-74 12 -18 0
-74 -13 19 0
75 -74 -13 0
75 -74 19 0
-75 74 0
-75 13 -19 0
-75 -14 20 0
76 -75 -14 0
76 -75 20 0
-76 75 0
-76 14 -20 0
-76 -15 21 0
77 -76 -15 0
77 -76 21 0
-77 76 0
-77 15 -21 0
-77 -17 -3 0
78 -77 -17 0
78 -77 -3 0
-78 77 0
-78 17 3 0
-78 -18 -5 0
79 -78 -18 0
79 -78 -5 0
-79 78 0
-79 18 5 0
-79 -19 -8 0
80 -79 -19 0
80 -79 -8 0
-80 79 0
-80 19 8 0
-80 -20 -12 0
81 -80 -20 0
81 -80 -12 0
-81 80 0
-81 20 12 0
-81 -21 -17 0
